c This is an instance of the exact track of PACE 2020 Challenge, see https://pacechallenge.org/2020/ 
c TYPE: social 
c ORIGIN: networkrepository.com 
c DESCRIPTION: A collaboration network 
p tdp 86 123
1 2
1 70
3 4
3 6
3 8
3 9
4 5
4 6
4 7
4 8
4 9
5 7
5 29
5 55
6 8
6 9
7 37
7 53
7 67
7 29
7 15
7 68
7 69
7 55
8 44
8 45
8 9
10 11
10 29
11 12
11 13
11 14
11 15
11 16
11 17
11 18
11 19
11 20
12 18
13 14
14 56
14 59
14 57
14 58
14 60
14 63
14 64
14 65
14 66
14 46
15 29
15 74
15 20
21 22
21 36
21 52
21 35
21 79
21 80
21 81
23 24
23 82
23 25
23 63
24 25
25 62
26 27
26 28
27 28
28 30
28 51
28 48
28 78
28 54
28 68
29 33
29 70
29 72
29 52
29 73
29 74
29 75
30 31
30 48
30 49
30 32
30 50
31 32
32 85
33 34
33 52
35 36
38 39
38 78
38 60
38 68
40 41
41 42
42 46
43 44
44 45
46 47
46 66
50 84
52 79
52 80
52 81
53 54
56 57
56 58
57 58
59 60
59 61
60 68
61 77
61 76
65 66
68 78
69 83
69 86
70 71
76 77
80 81
